NAME: tsp30_30
COMMENT: 30-tsp problem (Padberg/Rinaldi)
TYPE: TSP
DIMENSION: 30
EDGE_WEIGHT_TYPE : EUC_2D
NODE_COORD_SECTION
1 35 14
2 37 1
3 11 15
4 14 28
5 31 1
6 24 12
7 24 10
8 5 15
9 37 15
10 5 2
11 33 30
12 30 6
13 12 1
14 17 18
15 12 13
16 8 13
17 29 15
18 6 12
19 37 10
20 34 15
21 35 17
22 24 28
23 4 28
24 31 24
25 7 20
26 6 8
27 9 34
28 39 5
29 9 17
30 37 26
